c FILE: 3-FullIns_4.col

c SOURCE: M. Caramia (caramia@iac.rm.cnr.it) and P. Dell'Olmo (paolo.dellolmo@uniroma1.it)

c DESCRIPTION: 3-FullIns graph of order 4

p edge 405 3524
e 1 2
e 1 4
e 1 17
e 1 19
e 1 82
e 1 84
e 1 97
e 1 99
e 2 3
e 2 16
e 2 18
e 2 81
e 2 83
e 2 96
e 2 98
e 3 6
e 3 12
e 3 17
e 3 21
e 3 27
e 3 82
e 3 86
e 3 92
e 3 97
e 3 101
e 3 107
e 4 5
e 4 12
e 4 16
e 4 20
e 4 27
e 4 81
e 4 85
e 4 92
e 4 96
e 4 100
e 4 107
e 5 8
e 5 13
e 5 19
e 5 23
e 5 28
e 5 84
e 5 88
e 5 93
e 5 99
e 5 103
e 5 108
e 6 7
e 6 13
e 6 18
e 6 22
e 6 28
e 6 83
e 6 87
e 6 93
e 6 98
e 6 102
e 6 108
e 7 10
e 7 14
e 7 21
e 7 25
e 7 29
e 7 86
e 7 90
e 7 94
e 7 101
e 7 105
e 7 109
e 8 9
e 8 14
e 8 20
e 8 24
e 8 29
e 8 85
e 8 89
e 8 94
e 8 100
e 8 104
e 8 109
e 9 11
e 9 15
e 9 23
e 9 26
e 9 30
e 9 88
e 9 91
e 9 95
e 9 103
e 9 106
e 9 110
e 10 11
e 10 15
e 10 22
e 10 26
e 10 30
e 10 87
e 10 91
e 10 95
e 10 102
e 10 106
e 10 110
e 11 12
e 11 13
e 11 14
e 11 15
e 11 24
e 11 25
e 11 27
e 11 28
e 11 29
e 11 30
e 11 89
e 11 90
e 11 92
e 11 93
e 11 94
e 11 95
e 11 104
e 11 105
e 11 107
e 11 108
e 11 109
e 11 110
e 12 13
e 12 14
e 12 15
e 12 18
e 12 19
e 12 26
e 12 28
e 12 29
e 12 30
e 12 83
e 12 84
e 12 91
e 12 93
e 12 94
e 12 95
e 12 98
e 12 99
e 12 106
e 12 108
e 12 109
e 12 110
e 13 14
e 13 15
e 13 20
e 13 21
e 13 26
e 13 27
e 13 29
e 13 30
e 13 85
e 13 86
e 13 91
e 13 92
e 13 94
e 13 95
e 13 100
e 13 101
e 13 106
e 13 107
e 13 109
e 13 110
e 14 15
e 14 22
e 14 23
e 14 26
e 14 27
e 14 28
e 14 30
e 14 87
e 14 88
e 14 91
e 14 92
e 14 93
e 14 95
e 14 102
e 14 103
e 14 106
e 14 107
e 14 108
e 14 110
e 15 24
e 15 25
e 15 26
e 15 27
e 15 28
e 15 29
e 15 89
e 15 90
e 15 91
e 15 92
e 15 93
e 15 94
e 15 104
e 15 105
e 15 106
e 15 107
e 15 108
e 15 109
e 16 32
e 16 34
e 16 77
e 16 82
e 16 84
e 16 112
e 16 114
e 16 157
e 17 31
e 17 33
e 17 77
e 17 81
e 17 83
e 17 111
e 17 113
e 17 157
e 18 32
e 18 36
e 18 42
e 18 77
e 18 82
e 18 86
e 18 92
e 18 112
e 18 116
e 18 122
e 18 157
e 19 31
e 19 35
e 19 42
e 19 77
e 19 81
e 19 85
e 19 92
e 19 111
e 19 115
e 19 122
e 19 157
e 20 34
e 20 38
e 20 43
e 20 77
e 20 84
e 20 88
e 20 93
e 20 114
e 20 118
e 20 123
e 20 157
e 21 33
e 21 37
e 21 43
e 21 77
e 21 83
e 21 87
e 21 93
e 21 113
e 21 117
e 21 123
e 21 157
e 22 36
e 22 40
e 22 44
e 22 77
e 22 86
e 22 90
e 22 94
e 22 116
e 22 120
e 22 124
e 22 157
e 23 35
e 23 39
e 23 44
e 23 77
e 23 85
e 23 89
e 23 94
e 23 115
e 23 119
e 23 124
e 23 157
e 24 38
e 24 41
e 24 45
e 24 77
e 24 88
e 24 91
e 24 95
e 24 118
e 24 121
e 24 125
e 24 157
e 25 37
e 25 41
e 25 45
e 25 77
e 25 87
e 25 91
e 25 95
e 25 117
e 25 121
e 25 125
e 25 157
e 26 39
e 26 40
e 26 42
e 26 43
e 26 44
e 26 45
e 26 77
e 26 89
e 26 90
e 26 92
e 26 93
e 26 94
e 26 95
e 26 119
e 26 120
e 26 122
e 26 123
e 26 124
e 26 125
e 26 157
e 27 33
e 27 34
e 27 41
e 27 43
e 27 44
e 27 45
e 27 77
e 27 83
e 27 84
e 27 91
e 27 93
e 27 94
e 27 95
e 27 113
e 27 114
e 27 121
e 27 123
e 27 124
e 27 125
e 27 157
e 28 35
e 28 36
e 28 41
e 28 42
e 28 44
e 28 45
e 28 77
e 28 85
e 28 86
e 28 91
e 28 92
e 28 94
e 28 95
e 28 115
e 28 116
e 28 121
e 28 122
e 28 124
e 28 125
e 28 157
e 29 37
e 29 38
e 29 41
e 29 42
e 29 43
e 29 45
e 29 77
e 29 87
e 29 88
e 29 91
e 29 92
e 29 93
e 29 95
e 29 117
e 29 118
e 29 121
e 29 122
e 29 123
e 29 125
e 29 157
e 30 39
e 30 40
e 30 41
e 30 42
e 30 43
e 30 44
e 30 77
e 30 89
e 30 90
e 30 91
e 30 92
e 30 93
e 30 94
e 30 119
e 30 120
e 30 121
e 30 122
e 30 123
e 30 124
e 30 157
e 31 47
e 31 49
e 31 78
e 31 97
e 31 99
e 31 127
e 31 129
e 31 158
e 32 46
e 32 48
e 32 78
e 32 96
e 32 98
e 32 126
e 32 128
e 32 158
e 33 47
e 33 51
e 33 57
e 33 78
e 33 97
e 33 101
e 33 107
e 33 127
e 33 131
e 33 137
e 33 158
e 34 46
e 34 50
e 34 57
e 34 78
e 34 96
e 34 100
e 34 107
e 34 126
e 34 130
e 34 137
e 34 158
e 35 49
e 35 53
e 35 58
e 35 78
e 35 99
e 35 103
e 35 108
e 35 129
e 35 133
e 35 138
e 35 158
e 36 48
e 36 52
e 36 58
e 36 78
e 36 98
e 36 102
e 36 108
e 36 128
e 36 132
e 36 138
e 36 158
e 37 51
e 37 55
e 37 59
e 37 78
e 37 101
e 37 105
e 37 109
e 37 131
e 37 135
e 37 139
e 37 158
e 38 50
e 38 54
e 38 59
e 38 78
e 38 100
e 38 104
e 38 109
e 38 130
e 38 134
e 38 139
e 38 158
e 39 53
e 39 56
e 39 60
e 39 78
e 39 103
e 39 106
e 39 110
e 39 133
e 39 136
e 39 140
e 39 158
e 40 52
e 40 56
e 40 60
e 40 78
e 40 102
e 40 106
e 40 110
e 40 132
e 40 136
e 40 140
e 40 158
e 41 54
e 41 55
e 41 57
e 41 58
e 41 59
e 41 60
e 41 78
e 41 104
e 41 105
e 41 107
e 41 108
e 41 109
e 41 110
e 41 134
e 41 135
e 41 137
e 41 138
e 41 139
e 41 140
e 41 158
e 42 48
e 42 49
e 42 56
e 42 58
e 42 59
e 42 60
e 42 78
e 42 98
e 42 99
e 42 106
e 42 108
e 42 109
e 42 110
e 42 128
e 42 129
e 42 136
e 42 138
e 42 139
e 42 140
e 42 158
e 43 50
e 43 51
e 43 56
e 43 57
e 43 59
e 43 60
e 43 78
e 43 100
e 43 101
e 43 106
e 43 107
e 43 109
e 43 110
e 43 130
e 43 131
e 43 136
e 43 137
e 43 139
e 43 140
e 43 158
e 44 52
e 44 53
e 44 56
e 44 57
e 44 58
e 44 60
e 44 78
e 44 102
e 44 103
e 44 106
e 44 107
e 44 108
e 44 110
e 44 132
e 44 133
e 44 136
e 44 137
e 44 138
e 44 140
e 44 158
e 45 54
e 45 55
e 45 56
e 45 57
e 45 58
e 45 59
e 45 78
e 45 104
e 45 105
e 45 106
e 45 107
e 45 108
e 45 109
e 45 134
e 45 135
e 45 136
e 45 137
e 45 138
e 45 139
e 45 158
e 46 62
e 46 64
e 46 79
e 46 112
e 46 114
e 46 142
e 46 144
e 46 159
e 47 61
e 47 63
e 47 79
e 47 111
e 47 113
e 47 141
e 47 143
e 47 159
e 48 62
e 48 66
e 48 72
e 48 79
e 48 112
e 48 116
e 48 122
e 48 142
e 48 146
e 48 152
e 48 159
e 49 61
e 49 65
e 49 72
e 49 79
e 49 111
e 49 115
e 49 122
e 49 141
e 49 145
e 49 152
e 49 159
e 50 64
e 50 68
e 50 73
e 50 79
e 50 114
e 50 118
e 50 123
e 50 144
e 50 148
e 50 153
e 50 159
e 51 63
e 51 67
e 51 73
e 51 79
e 51 113
e 51 117
e 51 123
e 51 143
e 51 147
e 51 153
e 51 159
e 52 66
e 52 70
e 52 74
e 52 79
e 52 116
e 52 120
e 52 124
e 52 146
e 52 150
e 52 154
e 52 159
e 53 65
e 53 69
e 53 74
e 53 79
e 53 115
e 53 119
e 53 124
e 53 145
e 53 149
e 53 154
e 53 159
e 54 68
e 54 71
e 54 75
e 54 79
e 54 118
e 54 121
e 54 125
e 54 148
e 54 151
e 54 155
e 54 159
e 55 67
e 55 71
e 55 75
e 55 79
e 55 117
e 55 121
e 55 125
e 55 147
e 55 151
e 55 155
e 55 159
e 56 69
e 56 70
e 56 72
e 56 73
e 56 74
e 56 75
e 56 79
e 56 119
e 56 120
e 56 122
e 56 123
e 56 124
e 56 125
e 56 149
e 56 150
e 56 152
e 56 153
e 56 154
e 56 155
e 56 159
e 57 63
e 57 64
e 57 71
e 57 73
e 57 74
e 57 75
e 57 79
e 57 113
e 57 114
e 57 121
e 57 123
e 57 124
e 57 125
e 57 143
e 57 144
e 57 151
e 57 153
e 57 154
e 57 155
e 57 159
e 58 65
e 58 66
e 58 71
e 58 72
e 58 74
e 58 75
e 58 79
e 58 115
e 58 116
e 58 121
e 58 122
e 58 124
e 58 125
e 58 145
e 58 146
e 58 151
e 58 152
e 58 154
e 58 155
e 58 159
e 59 67
e 59 68
e 59 71
e 59 72
e 59 73
e 59 75
e 59 79
e 59 117
e 59 118
e 59 121
e 59 122
e 59 123
e 59 125
e 59 147
e 59 148
e 59 151
e 59 152
e 59 153
e 59 155
e 59 159
e 60 69
e 60 70
e 60 71
e 60 72
e 60 73
e 60 74
e 60 79
e 60 119
e 60 120
e 60 121
e 60 122
e 60 123
e 60 124
e 60 149
e 60 150
e 60 151
e 60 152
e 60 153
e 60 154
e 60 159
e 61 76
e 61 80
e 61 127
e 61 129
e 61 156
e 61 160
e 62 76
e 62 80
e 62 126
e 62 128
e 62 156
e 62 160
e 63 76
e 63 80
e 63 127
e 63 131
e 63 137
e 63 156
e 63 160
e 64 76
e 64 80
e 64 126
e 64 130
e 64 137
e 64 156
e 64 160
e 65 76
e 65 80
e 65 129
e 65 133
e 65 138
e 65 156
e 65 160
e 66 76
e 66 80
e 66 128
e 66 132
e 66 138
e 66 156
e 66 160
e 67 76
e 67 80
e 67 131
e 67 135
e 67 139
e 67 156
e 67 160
e 68 76
e 68 80
e 68 130
e 68 134
e 68 139
e 68 156
e 68 160
e 69 76
e 69 80
e 69 133
e 69 136
e 69 140
e 69 156
e 69 160
e 70 76
e 70 80
e 70 132
e 70 136
e 70 140
e 70 156
e 70 160
e 71 76
e 71 80
e 71 134
e 71 135
e 71 137
e 71 138
e 71 139
e 71 140
e 71 156
e 71 160
e 72 76
e 72 80
e 72 128
e 72 129
e 72 136
e 72 138
e 72 139
e 72 140
e 72 156
e 72 160
e 73 76
e 73 80
e 73 130
e 73 131
e 73 136
e 73 137
e 73 139
e 73 140
e 73 156
e 73 160
e 74 76
e 74 80
e 74 132
e 74 133
e 74 136
e 74 137
e 74 138
e 74 140
e 74 156
e 74 160
e 75 76
e 75 80
e 75 134
e 75 135
e 75 136
e 75 137
e 75 138
e 75 139
e 75 156
e 75 160
e 76 77
e 76 78
e 76 79
e 76 80
e 76 141
e 76 142
e 76 143
e 76 144
e 76 145
e 76 146
e 76 147
e 76 148
e 76 149
e 76 150
e 76 151
e 76 152
e 76 153
e 76 154
e 76 155
e 76 157
e 76 158
e 76 159
e 76 160
e 77 78
e 77 79
e 77 80
e 77 96
e 77 97
e 77 98
e 77 99
e 77 100
e 77 101
e 77 102
e 77 103
e 77 104
e 77 105
e 77 106
e 77 107
e 77 108
e 77 109
e 77 110
e 77 156
e 77 158
e 77 159
e 77 160
e 78 79
e 78 80
e 78 111
e 78 112
e 78 113
e 78 114
e 78 115
e 78 116
e 78 117
e 78 118
e 78 119
e 78 120
e 78 121
e 78 122
e 78 123
e 78 124
e 78 125
e 78 156
e 78 157
e 78 159
e 78 160
e 79 80
e 79 126
e 79 127
e 79 128
e 79 129
e 79 130
e 79 131
e 79 132
e 79 133
e 79 134
e 79 135
e 79 136
e 79 137
e 79 138
e 79 139
e 79 140
e 79 156
e 79 157
e 79 158
e 79 160
e 80 141
e 80 142
e 80 143
e 80 144
e 80 145
e 80 146
e 80 147
e 80 148
e 80 149
e 80 150
e 80 151
e 80 152
e 80 153
e 80 154
e 80 155
e 80 156
e 80 157
e 80 158
e 80 159
e 81 162
e 81 164
e 81 177
e 81 179
e 81 402
e 82 161
e 82 163
e 82 176
e 82 178
e 82 402
e 83 162
e 83 166
e 83 172
e 83 177
e 83 181
e 83 187
e 83 402
e 84 161
e 84 165
e 84 172
e 84 176
e 84 180
e 84 187
e 84 402
e 85 164
e 85 168
e 85 173
e 85 179
e 85 183
e 85 188
e 85 402
e 86 163
e 86 167
e 86 173
e 86 178
e 86 182
e 86 188
e 86 402
e 87 166
e 87 170
e 87 174
e 87 181
e 87 185
e 87 189
e 87 402
e 88 165
e 88 169
e 88 174
e 88 180
e 88 184
e 88 189
e 88 402
e 89 168
e 89 171
e 89 175
e 89 183
e 89 186
e 89 190
e 89 402
e 90 167
e 90 171
e 90 175
e 90 182
e 90 186
e 90 190
e 90 402
e 91 169
e 91 170
e 91 172
e 91 173
e 91 174
e 91 175
e 91 184
e 91 185
e 91 187
e 91 188
e 91 189
e 91 190
e 91 402
e 92 163
e 92 164
e 92 171
e 92 173
e 92 174
e 92 175
e 92 178
e 92 179
e 92 186
e 92 188
e 92 189
e 92 190
e 92 402
e 93 165
e 93 166
e 93 171
e 93 172
e 93 174
e 93 175
e 93 180
e 93 181
e 93 186
e 93 187
e 93 189
e 93 190
e 93 402
e 94 167
e 94 168
e 94 171
e 94 172
e 94 173
e 94 175
e 94 182
e 94 183
e 94 186
e 94 187
e 94 188
e 94 190
e 94 402
e 95 169
e 95 170
e 95 171
e 95 172
e 95 173
e 95 174
e 95 184
e 95 185
e 95 186
e 95 187
e 95 188
e 95 189
e 95 402
e 96 162
e 96 164
e 96 192
e 96 194
e 96 237
e 96 402
e 97 161
e 97 163
e 97 191
e 97 193
e 97 237
e 97 402
e 98 162
e 98 166
e 98 172
e 98 192
e 98 196
e 98 202
e 98 237
e 98 402
e 99 161
e 99 165
e 99 172
e 99 191
e 99 195
e 99 202
e 99 237
e 99 402
e 100 164
e 100 168
e 100 173
e 100 194
e 100 198
e 100 203
e 100 237
e 100 402
e 101 163
e 101 167
e 101 173
e 101 193
e 101 197
e 101 203
e 101 237
e 101 402
e 102 166
e 102 170
e 102 174
e 102 196
e 102 200
e 102 204
e 102 237
e 102 402
e 103 165
e 103 169
e 103 174
e 103 195
e 103 199
e 103 204
e 103 237
e 103 402
e 104 168
e 104 171
e 104 175
e 104 198
e 104 201
e 104 205
e 104 237
e 104 402
e 105 167
e 105 171
e 105 175
e 105 197
e 105 201
e 105 205
e 105 237
e 105 402
e 106 169
e 106 170
e 106 172
e 106 173
e 106 174
e 106 175
e 106 199
e 106 200
e 106 202
e 106 203
e 106 204
e 106 205
e 106 237
e 106 402
e 107 163
e 107 164
e 107 171
e 107 173
e 107 174
e 107 175
e 107 193
e 107 194
e 107 201
e 107 203
e 107 204
e 107 205
e 107 237
e 107 402
e 108 165
e 108 166
e 108 171
e 108 172
e 108 174
e 108 175
e 108 195
e 108 196
e 108 201
e 108 202
e 108 204
e 108 205
e 108 237
e 108 402
e 109 167
e 109 168
e 109 171
e 109 172
e 109 173
e 109 175
e 109 197
e 109 198
e 109 201
e 109 202
e 109 203
e 109 205
e 109 237
e 109 402
e 110 169
e 110 170
e 110 171
e 110 172
e 110 173
e 110 174
e 110 199
e 110 200
e 110 201
e 110 202
e 110 203
e 110 204
e 110 237
e 110 402
e 111 177
e 111 179
e 111 207
e 111 209
e 111 238
e 111 402
e 112 176
e 112 178
e 112 206
e 112 208
e 112 238
e 112 402
e 113 177
e 113 181
e 113 187
e 113 207
e 113 211
e 113 217
e 113 238
e 113 402
e 114 176
e 114 180
e 114 187
e 114 206
e 114 210
e 114 217
e 114 238
e 114 402
e 115 179
e 115 183
e 115 188
e 115 209
e 115 213
e 115 218
e 115 238
e 115 402
e 116 178
e 116 182
e 116 188
e 116 208
e 116 212
e 116 218
e 116 238
e 116 402
e 117 181
e 117 185
e 117 189
e 117 211
e 117 215
e 117 219
e 117 238
e 117 402
e 118 180
e 118 184
e 118 189
e 118 210
e 118 214
e 118 219
e 118 238
e 118 402
e 119 183
e 119 186
e 119 190
e 119 213
e 119 216
e 119 220
e 119 238
e 119 402
e 120 182
e 120 186
e 120 190
e 120 212
e 120 216
e 120 220
e 120 238
e 120 402
e 121 184
e 121 185
e 121 187
e 121 188
e 121 189
e 121 190
e 121 214
e 121 215
e 121 217
e 121 218
e 121 219
e 121 220
e 121 238
e 121 402
e 122 178
e 122 179
e 122 186
e 122 188
e 122 189
e 122 190
e 122 208
e 122 209
e 122 216
e 122 218
e 122 219
e 122 220
e 122 238
e 122 402
e 123 180
e 123 181
e 123 186
e 123 187
e 123 189
e 123 190
e 123 210
e 123 211
e 123 216
e 123 217
e 123 219
e 123 220
e 123 238
e 123 402
e 124 182
e 124 183
e 124 186
e 124 187
e 124 188
e 124 190
e 124 212
e 124 213
e 124 216
e 124 217
e 124 218
e 124 220
e 124 238
e 124 402
e 125 184
e 125 185
e 125 186
e 125 187
e 125 188
e 125 189
e 125 214
e 125 215
e 125 216
e 125 217
e 125 218
e 125 219
e 125 238
e 125 402
e 126 192
e 126 194
e 126 222
e 126 224
e 126 239
e 126 402
e 127 191
e 127 193
e 127 221
e 127 223
e 127 239
e 127 402
e 128 192
e 128 196
e 128 202
e 128 222
e 128 226
e 128 232
e 128 239
e 128 402
e 129 191
e 129 195
e 129 202
e 129 221
e 129 225
e 129 232
e 129 239
e 129 402
e 130 194
e 130 198
e 130 203
e 130 224
e 130 228
e 130 233
e 130 239
e 130 402
e 131 193
e 131 197
e 131 203
e 131 223
e 131 227
e 131 233
e 131 239
e 131 402
e 132 196
e 132 200
e 132 204
e 132 226
e 132 230
e 132 234
e 132 239
e 132 402
e 133 195
e 133 199
e 133 204
e 133 225
e 133 229
e 133 234
e 133 239
e 133 402
e 134 198
e 134 201
e 134 205
e 134 228
e 134 231
e 134 235
e 134 239
e 134 402
e 135 197
e 135 201
e 135 205
e 135 227
e 135 231
e 135 235
e 135 239
e 135 402
e 136 199
e 136 200
e 136 202
e 136 203
e 136 204
e 136 205
e 136 229
e 136 230
e 136 232
e 136 233
e 136 234
e 136 235
e 136 239
e 136 402
e 137 193
e 137 194
e 137 201
e 137 203
e 137 204
e 137 205
e 137 223
e 137 224
e 137 231
e 137 233
e 137 234
e 137 235
e 137 239
e 137 402
e 138 195
e 138 196
e 138 201
e 138 202
e 138 204
e 138 205
e 138 225
e 138 226
e 138 231
e 138 232
e 138 234
e 138 235
e 138 239
e 138 402
e 139 197
e 139 198
e 139 201
e 139 202
e 139 203
e 139 205
e 139 227
e 139 228
e 139 231
e 139 232
e 139 233
e 139 235
e 139 239
e 139 402
e 140 199
e 140 200
e 140 201
e 140 202
e 140 203
e 140 204
e 140 229
e 140 230
e 140 231
e 140 232
e 140 233
e 140 234
e 140 239
e 140 402
e 141 207
e 141 209
e 141 236
e 141 240
e 141 402
e 142 206
e 142 208
e 142 236
e 142 240
e 142 402
e 143 207
e 143 211
e 143 217
e 143 236
e 143 240
e 143 402
e 144 206
e 144 210
e 144 217
e 144 236
e 144 240
e 144 402
e 145 209
e 145 213
e 145 218
e 145 236
e 145 240
e 145 402
e 146 208
e 146 212
e 146 218
e 146 236
e 146 240
e 146 402
e 147 211
e 147 215
e 147 219
e 147 236
e 147 240
e 147 402
e 148 210
e 148 214
e 148 219
e 148 236
e 148 240
e 148 402
e 149 213
e 149 216
e 149 220
e 149 236
e 149 240
e 149 402
e 150 212
e 150 216
e 150 220
e 150 236
e 150 240
e 150 402
e 151 214
e 151 215
e 151 217
e 151 218
e 151 219
e 151 220
e 151 236
e 151 240
e 151 402
e 152 208
e 152 209
e 152 216
e 152 218
e 152 219
e 152 220
e 152 236
e 152 240
e 152 402
e 153 210
e 153 211
e 153 216
e 153 217
e 153 219
e 153 220
e 153 236
e 153 240
e 153 402
e 154 212
e 154 213
e 154 216
e 154 217
e 154 218
e 154 220
e 154 236
e 154 240
e 154 402
e 155 214
e 155 215
e 155 216
e 155 217
e 155 218
e 155 219
e 155 236
e 155 240
e 155 402
e 156 221
e 156 222
e 156 223
e 156 224
e 156 225
e 156 226
e 156 227
e 156 228
e 156 229
e 156 230
e 156 231
e 156 232
e 156 233
e 156 234
e 156 235
e 156 237
e 156 238
e 156 239
e 156 240
e 156 402
e 157 176
e 157 177
e 157 178
e 157 179
e 157 180
e 157 181
e 157 182
e 157 183
e 157 184
e 157 185
e 157 186
e 157 187
e 157 188
e 157 189
e 157 190
e 157 236
e 157 238
e 157 239
e 157 240
e 157 402
e 158 191
e 158 192
e 158 193
e 158 194
e 158 195
e 158 196
e 158 197
e 158 198
e 158 199
e 158 200
e 158 201
e 158 202
e 158 203
e 158 204
e 158 205
e 158 236
e 158 237
e 158 239
e 158 240
e 158 402
e 159 206
e 159 207
e 159 208
e 159 209
e 159 210
e 159 211
e 159 212
e 159 213
e 159 214
e 159 215
e 159 216
e 159 217
e 159 218
e 159 219
e 159 220
e 159 236
e 159 237
e 159 238
e 159 240
e 159 402
e 160 221
e 160 222
e 160 223
e 160 224
e 160 225
e 160 226
e 160 227
e 160 228
e 160 229
e 160 230
e 160 231
e 160 232
e 160 233
e 160 234
e 160 235
e 160 236
e 160 237
e 160 238
e 160 239
e 160 402
e 161 242
e 161 244
e 161 257
e 161 259
e 161 403
e 162 241
e 162 243
e 162 256
e 162 258
e 162 403
e 163 242
e 163 246
e 163 252
e 163 257
e 163 261
e 163 267
e 163 403
e 164 241
e 164 245
e 164 252
e 164 256
e 164 260
e 164 267
e 164 403
e 165 244
e 165 248
e 165 253
e 165 259
e 165 263
e 165 268
e 165 403
e 166 243
e 166 247
e 166 253
e 166 258
e 166 262
e 166 268
e 166 403
e 167 246
e 167 250
e 167 254
e 167 261
e 167 265
e 167 269
e 167 403
e 168 245
e 168 249
e 168 254
e 168 260
e 168 264
e 168 269
e 168 403
e 169 248
e 169 251
e 169 255
e 169 263
e 169 266
e 169 270
e 169 403
e 170 247
e 170 251
e 170 255
e 170 262
e 170 266
e 170 270
e 170 403
e 171 249
e 171 250
e 171 252
e 171 253
e 171 254
e 171 255
e 171 264
e 171 265
e 171 267
e 171 268
e 171 269
e 171 270
e 171 403
e 172 243
e 172 244
e 172 251
e 172 253
e 172 254
e 172 255
e 172 258
e 172 259
e 172 266
e 172 268
e 172 269
e 172 270
e 172 403
e 173 245
e 173 246
e 173 251
e 173 252
e 173 254
e 173 255
e 173 260
e 173 261
e 173 266
e 173 267
e 173 269
e 173 270
e 173 403
e 174 247
e 174 248
e 174 251
e 174 252
e 174 253
e 174 255
e 174 262
e 174 263
e 174 266
e 174 267
e 174 268
e 174 270
e 174 403
e 175 249
e 175 250
e 175 251
e 175 252
e 175 253
e 175 254
e 175 264
e 175 265
e 175 266
e 175 267
e 175 268
e 175 269
e 175 403
e 176 242
e 176 244
e 176 272
e 176 274
e 176 317
e 176 403
e 177 241
e 177 243
e 177 271
e 177 273
e 177 317
e 177 403
e 178 242
e 178 246
e 178 252
e 178 272
e 178 276
e 178 282
e 178 317
e 178 403
e 179 241
e 179 245
e 179 252
e 179 271
e 179 275
e 179 282
e 179 317
e 179 403
e 180 244
e 180 248
e 180 253
e 180 274
e 180 278
e 180 283
e 180 317
e 180 403
e 181 243
e 181 247
e 181 253
e 181 273
e 181 277
e 181 283
e 181 317
e 181 403
e 182 246
e 182 250
e 182 254
e 182 276
e 182 280
e 182 284
e 182 317
e 182 403
e 183 245
e 183 249
e 183 254
e 183 275
e 183 279
e 183 284
e 183 317
e 183 403
e 184 248
e 184 251
e 184 255
e 184 278
e 184 281
e 184 285
e 184 317
e 184 403
e 185 247
e 185 251
e 185 255
e 185 277
e 185 281
e 185 285
e 185 317
e 185 403
e 186 249
e 186 250
e 186 252
e 186 253
e 186 254
e 186 255
e 186 279
e 186 280
e 186 282
e 186 283
e 186 284
e 186 285
e 186 317
e 186 403
e 187 243
e 187 244
e 187 251
e 187 253
e 187 254
e 187 255
e 187 273
e 187 274
e 187 281
e 187 283
e 187 284
e 187 285
e 187 317
e 187 403
e 188 245
e 188 246
e 188 251
e 188 252
e 188 254
e 188 255
e 188 275
e 188 276
e 188 281
e 188 282
e 188 284
e 188 285
e 188 317
e 188 403
e 189 247
e 189 248
e 189 251
e 189 252
e 189 253
e 189 255
e 189 277
e 189 278
e 189 281
e 189 282
e 189 283
e 189 285
e 189 317
e 189 403
e 190 249
e 190 250
e 190 251
e 190 252
e 190 253
e 190 254
e 190 279
e 190 280
e 190 281
e 190 282
e 190 283
e 190 284
e 190 317
e 190 403
e 191 257
e 191 259
e 191 287
e 191 289
e 191 318
e 191 403
e 192 256
e 192 258
e 192 286
e 192 288
e 192 318
e 192 403
e 193 257
e 193 261
e 193 267
e 193 287
e 193 291
e 193 297
e 193 318
e 193 403
e 194 256
e 194 260
e 194 267
e 194 286
e 194 290
e 194 297
e 194 318
e 194 403
e 195 259
e 195 263
e 195 268
e 195 289
e 195 293
e 195 298
e 195 318
e 195 403
e 196 258
e 196 262
e 196 268
e 196 288
e 196 292
e 196 298
e 196 318
e 196 403
e 197 261
e 197 265
e 197 269
e 197 291
e 197 295
e 197 299
e 197 318
e 197 403
e 198 260
e 198 264
e 198 269
e 198 290
e 198 294
e 198 299
e 198 318
e 198 403
e 199 263
e 199 266
e 199 270
e 199 293
e 199 296
e 199 300
e 199 318
e 199 403
e 200 262
e 200 266
e 200 270
e 200 292
e 200 296
e 200 300
e 200 318
e 200 403
e 201 264
e 201 265
e 201 267
e 201 268
e 201 269
e 201 270
e 201 294
e 201 295
e 201 297
e 201 298
e 201 299
e 201 300
e 201 318
e 201 403
e 202 258
e 202 259
e 202 266
e 202 268
e 202 269
e 202 270
e 202 288
e 202 289
e 202 296
e 202 298
e 202 299
e 202 300
e 202 318
e 202 403
e 203 260
e 203 261
e 203 266
e 203 267
e 203 269
e 203 270
e 203 290
e 203 291
e 203 296
e 203 297
e 203 299
e 203 300
e 203 318
e 203 403
e 204 262
e 204 263
e 204 266
e 204 267
e 204 268
e 204 270
e 204 292
e 204 293
e 204 296
e 204 297
e 204 298
e 204 300
e 204 318
e 204 403
e 205 264
e 205 265
e 205 266
e 205 267
e 205 268
e 205 269
e 205 294
e 205 295
e 205 296
e 205 297
e 205 298
e 205 299
e 205 318
e 205 403
e 206 272
e 206 274
e 206 302
e 206 304
e 206 319
e 206 403
e 207 271
e 207 273
e 207 301
e 207 303
e 207 319
e 207 403
e 208 272
e 208 276
e 208 282
e 208 302
e 208 306
e 208 312
e 208 319
e 208 403
e 209 271
e 209 275
e 209 282
e 209 301
e 209 305
e 209 312
e 209 319
e 209 403
e 210 274
e 210 278
e 210 283
e 210 304
e 210 308
e 210 313
e 210 319
e 210 403
e 211 273
e 211 277
e 211 283
e 211 303
e 211 307
e 211 313
e 211 319
e 211 403
e 212 276
e 212 280
e 212 284
e 212 306
e 212 310
e 212 314
e 212 319
e 212 403
e 213 275
e 213 279
e 213 284
e 213 305
e 213 309
e 213 314
e 213 319
e 213 403
e 214 278
e 214 281
e 214 285
e 214 308
e 214 311
e 214 315
e 214 319
e 214 403
e 215 277
e 215 281
e 215 285
e 215 307
e 215 311
e 215 315
e 215 319
e 215 403
e 216 279
e 216 280
e 216 282
e 216 283
e 216 284
e 216 285
e 216 309
e 216 310
e 216 312
e 216 313
e 216 314
e 216 315
e 216 319
e 216 403
e 217 273
e 217 274
e 217 281
e 217 283
e 217 284
e 217 285
e 217 303
e 217 304
e 217 311
e 217 313
e 217 314
e 217 315
e 217 319
e 217 403
e 218 275
e 218 276
e 218 281
e 218 282
e 218 284
e 218 285
e 218 305
e 218 306
e 218 311
e 218 312
e 218 314
e 218 315
e 218 319
e 218 403
e 219 277
e 219 278
e 219 281
e 219 282
e 219 283
e 219 285
e 219 307
e 219 308
e 219 311
e 219 312
e 219 313
e 219 315
e 219 319
e 219 403
e 220 279
e 220 280
e 220 281
e 220 282
e 220 283
e 220 284
e 220 309
e 220 310
e 220 311
e 220 312
e 220 313
e 220 314
e 220 319
e 220 403
e 221 287
e 221 289
e 221 316
e 221 320
e 221 403
e 222 286
e 222 288
e 222 316
e 222 320
e 222 403
e 223 287
e 223 291
e 223 297
e 223 316
e 223 320
e 223 403
e 224 286
e 224 290
e 224 297
e 224 316
e 224 320
e 224 403
e 225 289
e 225 293
e 225 298
e 225 316
e 225 320
e 225 403
e 226 288
e 226 292
e 226 298
e 226 316
e 226 320
e 226 403
e 227 291
e 227 295
e 227 299
e 227 316
e 227 320
e 227 403
e 228 290
e 228 294
e 228 299
e 228 316
e 228 320
e 228 403
e 229 293
e 229 296
e 229 300
e 229 316
e 229 320
e 229 403
e 230 292
e 230 296
e 230 300
e 230 316
e 230 320
e 230 403
e 231 294
e 231 295
e 231 297
e 231 298
e 231 299
e 231 300
e 231 316
e 231 320
e 231 403
e 232 288
e 232 289
e 232 296
e 232 298
e 232 299
e 232 300
e 232 316
e 232 320
e 232 403
e 233 290
e 233 291
e 233 296
e 233 297
e 233 299
e 233 300
e 233 316
e 233 320
e 233 403
e 234 292
e 234 293
e 234 296
e 234 297
e 234 298
e 234 300
e 234 316
e 234 320
e 234 403
e 235 294
e 235 295
e 235 296
e 235 297
e 235 298
e 235 299
e 235 316
e 235 320
e 235 403
e 236 301
e 236 302
e 236 303
e 236 304
e 236 305
e 236 306
e 236 307
e 236 308
e 236 309
e 236 310
e 236 311
e 236 312
e 236 313
e 236 314
e 236 315
e 236 317
e 236 318
e 236 319
e 236 320
e 236 403
e 237 256
e 237 257
e 237 258
e 237 259
e 237 260
e 237 261
e 237 262
e 237 263
e 237 264
e 237 265
e 237 266
e 237 267
e 237 268
e 237 269
e 237 270
e 237 316
e 237 318
e 237 319
e 237 320
e 237 403
e 238 271
e 238 272
e 238 273
e 238 274
e 238 275
e 238 276
e 238 277
e 238 278
e 238 279
e 238 280
e 238 281
e 238 282
e 238 283
e 238 284
e 238 285
e 238 316
e 238 317
e 238 319
e 238 320
e 238 403
e 239 286
e 239 287
e 239 288
e 239 289
e 239 290
e 239 291
e 239 292
e 239 293
e 239 294
e 239 295
e 239 296
e 239 297
e 239 298
e 239 299
e 239 300
e 239 316
e 239 317
e 239 318
e 239 320
e 239 403
e 240 301
e 240 302
e 240 303
e 240 304
e 240 305
e 240 306
e 240 307
e 240 308
e 240 309
e 240 310
e 240 311
e 240 312
e 240 313
e 240 314
e 240 315
e 240 316
e 240 317
e 240 318
e 240 319
e 240 403
e 241 322
e 241 324
e 241 337
e 241 339
e 241 404
e 242 321
e 242 323
e 242 336
e 242 338
e 242 404
e 243 322
e 243 326
e 243 332
e 243 337
e 243 341
e 243 347
e 243 404
e 244 321
e 244 325
e 244 332
e 244 336
e 244 340
e 244 347
e 244 404
e 245 324
e 245 328
e 245 333
e 245 339
e 245 343
e 245 348
e 245 404
e 246 323
e 246 327
e 246 333
e 246 338
e 246 342
e 246 348
e 246 404
e 247 326
e 247 330
e 247 334
e 247 341
e 247 345
e 247 349
e 247 404
e 248 325
e 248 329
e 248 334
e 248 340
e 248 344
e 248 349
e 248 404
e 249 328
e 249 331
e 249 335
e 249 343
e 249 346
e 249 350
e 249 404
e 250 327
e 250 331
e 250 335
e 250 342
e 250 346
e 250 350
e 250 404
e 251 329
e 251 330
e 251 332
e 251 333
e 251 334
e 251 335
e 251 344
e 251 345
e 251 347
e 251 348
e 251 349
e 251 350
e 251 404
e 252 323
e 252 324
e 252 331
e 252 333
e 252 334
e 252 335
e 252 338
e 252 339
e 252 346
e 252 348
e 252 349
e 252 350
e 252 404
e 253 325
e 253 326
e 253 331
e 253 332
e 253 334
e 253 335
e 253 340
e 253 341
e 253 346
e 253 347
e 253 349
e 253 350
e 253 404
e 254 327
e 254 328
e 254 331
e 254 332
e 254 333
e 254 335
e 254 342
e 254 343
e 254 346
e 254 347
e 254 348
e 254 350
e 254 404
e 255 329
e 255 330
e 255 331
e 255 332
e 255 333
e 255 334
e 255 344
e 255 345
e 255 346
e 255 347
e 255 348
e 255 349
e 255 404
e 256 322
e 256 324
e 256 352
e 256 354
e 256 397
e 256 404
e 257 321
e 257 323
e 257 351
e 257 353
e 257 397
e 257 404
e 258 322
e 258 326
e 258 332
e 258 352
e 258 356
e 258 362
e 258 397
e 258 404
e 259 321
e 259 325
e 259 332
e 259 351
e 259 355
e 259 362
e 259 397
e 259 404
e 260 324
e 260 328
e 260 333
e 260 354
e 260 358
e 260 363
e 260 397
e 260 404
e 261 323
e 261 327
e 261 333
e 261 353
e 261 357
e 261 363
e 261 397
e 261 404
e 262 326
e 262 330
e 262 334
e 262 356
e 262 360
e 262 364
e 262 397
e 262 404
e 263 325
e 263 329
e 263 334
e 263 355
e 263 359
e 263 364
e 263 397
e 263 404
e 264 328
e 264 331
e 264 335
e 264 358
e 264 361
e 264 365
e 264 397
e 264 404
e 265 327
e 265 331
e 265 335
e 265 357
e 265 361
e 265 365
e 265 397
e 265 404
e 266 329
e 266 330
e 266 332
e 266 333
e 266 334
e 266 335
e 266 359
e 266 360
e 266 362
e 266 363
e 266 364
e 266 365
e 266 397
e 266 404
e 267 323
e 267 324
e 267 331
e 267 333
e 267 334
e 267 335
e 267 353
e 267 354
e 267 361
e 267 363
e 267 364
e 267 365
e 267 397
e 267 404
e 268 325
e 268 326
e 268 331
e 268 332
e 268 334
e 268 335
e 268 355
e 268 356
e 268 361
e 268 362
e 268 364
e 268 365
e 268 397
e 268 404
e 269 327
e 269 328
e 269 331
e 269 332
e 269 333
e 269 335
e 269 357
e 269 358
e 269 361
e 269 362
e 269 363
e 269 365
e 269 397
e 269 404
e 270 329
e 270 330
e 270 331
e 270 332
e 270 333
e 270 334
e 270 359
e 270 360
e 270 361
e 270 362
e 270 363
e 270 364
e 270 397
e 270 404
e 271 337
e 271 339
e 271 367
e 271 369
e 271 398
e 271 404
e 272 336
e 272 338
e 272 366
e 272 368
e 272 398
e 272 404
e 273 337
e 273 341
e 273 347
e 273 367
e 273 371
e 273 377
e 273 398
e 273 404
e 274 336
e 274 340
e 274 347
e 274 366
e 274 370
e 274 377
e 274 398
e 274 404
e 275 339
e 275 343
e 275 348
e 275 369
e 275 373
e 275 378
e 275 398
e 275 404
e 276 338
e 276 342
e 276 348
e 276 368
e 276 372
e 276 378
e 276 398
e 276 404
e 277 341
e 277 345
e 277 349
e 277 371
e 277 375
e 277 379
e 277 398
e 277 404
e 278 340
e 278 344
e 278 349
e 278 370
e 278 374
e 278 379
e 278 398
e 278 404
e 279 343
e 279 346
e 279 350
e 279 373
e 279 376
e 279 380
e 279 398
e 279 404
e 280 342
e 280 346
e 280 350
e 280 372
e 280 376
e 280 380
e 280 398
e 280 404
e 281 344
e 281 345
e 281 347
e 281 348
e 281 349
e 281 350
e 281 374
e 281 375
e 281 377
e 281 378
e 281 379
e 281 380
e 281 398
e 281 404
e 282 338
e 282 339
e 282 346
e 282 348
e 282 349
e 282 350
e 282 368
e 282 369
e 282 376
e 282 378
e 282 379
e 282 380
e 282 398
e 282 404
e 283 340
e 283 341
e 283 346
e 283 347
e 283 349
e 283 350
e 283 370
e 283 371
e 283 376
e 283 377
e 283 379
e 283 380
e 283 398
e 283 404
e 284 342
e 284 343
e 284 346
e 284 347
e 284 348
e 284 350
e 284 372
e 284 373
e 284 376
e 284 377
e 284 378
e 284 380
e 284 398
e 284 404
e 285 344
e 285 345
e 285 346
e 285 347
e 285 348
e 285 349
e 285 374
e 285 375
e 285 376
e 285 377
e 285 378
e 285 379
e 285 398
e 285 404
e 286 352
e 286 354
e 286 382
e 286 384
e 286 399
e 286 404
e 287 351
e 287 353
e 287 381
e 287 383
e 287 399
e 287 404
e 288 352
e 288 356
e 288 362
e 288 382
e 288 386
e 288 392
e 288 399
e 288 404
e 289 351
e 289 355
e 289 362
e 289 381
e 289 385
e 289 392
e 289 399
e 289 404
e 290 354
e 290 358
e 290 363
e 290 384
e 290 388
e 290 393
e 290 399
e 290 404
e 291 353
e 291 357
e 291 363
e 291 383
e 291 387
e 291 393
e 291 399
e 291 404
e 292 356
e 292 360
e 292 364
e 292 386
e 292 390
e 292 394
e 292 399
e 292 404
e 293 355
e 293 359
e 293 364
e 293 385
e 293 389
e 293 394
e 293 399
e 293 404
e 294 358
e 294 361
e 294 365
e 294 388
e 294 391
e 294 395
e 294 399
e 294 404
e 295 357
e 295 361
e 295 365
e 295 387
e 295 391
e 295 395
e 295 399
e 295 404
e 296 359
e 296 360
e 296 362
e 296 363
e 296 364
e 296 365
e 296 389
e 296 390
e 296 392
e 296 393
e 296 394
e 296 395
e 296 399
e 296 404
e 297 353
e 297 354
e 297 361
e 297 363
e 297 364
e 297 365
e 297 383
e 297 384
e 297 391
e 297 393
e 297 394
e 297 395
e 297 399
e 297 404
e 298 355
e 298 356
e 298 361
e 298 362
e 298 364
e 298 365
e 298 385
e 298 386
e 298 391
e 298 392
e 298 394
e 298 395
e 298 399
e 298 404
e 299 357
e 299 358
e 299 361
e 299 362
e 299 363
e 299 365
e 299 387
e 299 388
e 299 391
e 299 392
e 299 393
e 299 395
e 299 399
e 299 404
e 300 359
e 300 360
e 300 361
e 300 362
e 300 363
e 300 364
e 300 389
e 300 390
e 300 391
e 300 392
e 300 393
e 300 394
e 300 399
e 300 404
e 301 367
e 301 369
e 301 396
e 301 400
e 301 404
e 302 366
e 302 368
e 302 396
e 302 400
e 302 404
e 303 367
e 303 371
e 303 377
e 303 396
e 303 400
e 303 404
e 304 366
e 304 370
e 304 377
e 304 396
e 304 400
e 304 404
e 305 369
e 305 373
e 305 378
e 305 396
e 305 400
e 305 404
e 306 368
e 306 372
e 306 378
e 306 396
e 306 400
e 306 404
e 307 371
e 307 375
e 307 379
e 307 396
e 307 400
e 307 404
e 308 370
e 308 374
e 308 379
e 308 396
e 308 400
e 308 404
e 309 373
e 309 376
e 309 380
e 309 396
e 309 400
e 309 404
e 310 372
e 310 376
e 310 380
e 310 396
e 310 400
e 310 404
e 311 374
e 311 375
e 311 377
e 311 378
e 311 379
e 311 380
e 311 396
e 311 400
e 311 404
e 312 368
e 312 369
e 312 376
e 312 378
e 312 379
e 312 380
e 312 396
e 312 400
e 312 404
e 313 370
e 313 371
e 313 376
e 313 377
e 313 379
e 313 380
e 313 396
e 313 400
e 313 404
e 314 372
e 314 373
e 314 376
e 314 377
e 314 378
e 314 380
e 314 396
e 314 400
e 314 404
e 315 374
e 315 375
e 315 376
e 315 377
e 315 378
e 315 379
e 315 396
e 315 400
e 315 404
e 316 381
e 316 382
e 316 383
e 316 384
e 316 385
e 316 386
e 316 387
e 316 388
e 316 389
e 316 390
e 316 391
e 316 392
e 316 393
e 316 394
e 316 395
e 316 397
e 316 398
e 316 399
e 316 400
e 316 404
e 317 336
e 317 337
e 317 338
e 317 339
e 317 340
e 317 341
e 317 342
e 317 343
e 317 344
e 317 345
e 317 346
e 317 347
e 317 348
e 317 349
e 317 350
e 317 396
e 317 398
e 317 399
e 317 400
e 317 404
e 318 351
e 318 352
e 318 353
e 318 354
e 318 355
e 318 356
e 318 357
e 318 358
e 318 359
e 318 360
e 318 361
e 318 362
e 318 363
e 318 364
e 318 365
e 318 396
e 318 397
e 318 399
e 318 400
e 318 404
e 319 366
e 319 367
e 319 368
e 319 369
e 319 370
e 319 371
e 319 372
e 319 373
e 319 374
e 319 375
e 319 376
e 319 377
e 319 378
e 319 379
e 319 380
e 319 396
e 319 397
e 319 398
e 319 400
e 319 404
e 320 381
e 320 382
e 320 383
e 320 384
e 320 385
e 320 386
e 320 387
e 320 388
e 320 389
e 320 390
e 320 391
e 320 392
e 320 393
e 320 394
e 320 395
e 320 396
e 320 397
e 320 398
e 320 399
e 320 404
e 321 401
e 321 405
e 322 401
e 322 405
e 323 401
e 323 405
e 324 401
e 324 405
e 325 401
e 325 405
e 326 401
e 326 405
e 327 401
e 327 405
e 328 401
e 328 405
e 329 401
e 329 405
e 330 401
e 330 405
e 331 401
e 331 405
e 332 401
e 332 405
e 333 401
e 333 405
e 334 401
e 334 405
e 335 401
e 335 405
e 336 401
e 336 405
e 337 401
e 337 405
e 338 401
e 338 405
e 339 401
e 339 405
e 340 401
e 340 405
e 341 401
e 341 405
e 342 401
e 342 405
e 343 401
e 343 405
e 344 401
e 344 405
e 345 401
e 345 405
e 346 401
e 346 405
e 347 401
e 347 405
e 348 401
e 348 405
e 349 401
e 349 405
e 350 401
e 350 405
e 351 401
e 351 405
e 352 401
e 352 405
e 353 401
e 353 405
e 354 401
e 354 405
e 355 401
e 355 405
e 356 401
e 356 405
e 357 401
e 357 405
e 358 401
e 358 405
e 359 401
e 359 405
e 360 401
e 360 405
e 361 401
e 361 405
e 362 401
e 362 405
e 363 401
e 363 405
e 364 401
e 364 405
e 365 401
e 365 405
e 366 401
e 366 405
e 367 401
e 367 405
e 368 401
e 368 405
e 369 401
e 369 405
e 370 401
e 370 405
e 371 401
e 371 405
e 372 401
e 372 405
e 373 401
e 373 405
e 374 401
e 374 405
e 375 401
e 375 405
e 376 401
e 376 405
e 377 401
e 377 405
e 378 401
e 378 405
e 379 401
e 379 405
e 380 401
e 380 405
e 381 401
e 381 405
e 382 401
e 382 405
e 383 401
e 383 405
e 384 401
e 384 405
e 385 401
e 385 405
e 386 401
e 386 405
e 387 401
e 387 405
e 388 401
e 388 405
e 389 401
e 389 405
e 390 401
e 390 405
e 391 401
e 391 405
e 392 401
e 392 405
e 393 401
e 393 405
e 394 401
e 394 405
e 395 401
e 395 405
e 396 401
e 396 405
e 397 401
e 397 405
e 398 401
e 398 405
e 399 401
e 399 405
e 400 401
e 400 405
e 401 402
e 401 403
e 401 404
e 401 405
e 402 403
e 402 404
e 402 405
e 403 404
e 403 405
e 404 405
